NAME : ../File/prFile/tspFile/tsp_file48.tsp.466.tour
COMMENT : Length = 466
COMMENT : Found by LKH-3 [Keld Helsgaun] Wed Jun 14 15:57:59 2023
TYPE : TOUR
DIMENSION : 30
TOUR_SECTION
1
8
16
7
29
17
5
10
11
24
3
26
23
22
15
28
25
18
14
21
13
20
9
27
19
12
2
4
6
30
-1
EOF
